certificates/rado_a6_c2_N39.cnf
c Rad2 upper bound instance: x1 + 6*x2 - x3 = 2, interval [1,39]
p cnf 39 240
1 5 0
-1 -5 0
1 2 11 0
-1 -2 -11 0
1 3 17 0
-1 -3 -17 0
1 4 23 0
-1 -4 -23 0
1 5 29 0
-1 -5 -29 0
1 6 35 0
-1 -6 -35 0
1 2 6 0
-1 -2 -6 0
2 12 0
-2 -12 0
2 3 18 0
-2 -3 -18 0
2 4 24 0
-2 -4 -24 0
2 5 30 0
-2 -5 -30 0
2 6 36 0
-2 -6 -36 0
1 3 7 0
-1 -3 -7 0
2 3 13 0
-2 -3 -13 0
3 19 0
-3 -19 0
3 4 25 0
-3 -4 -25 0
3 5 31 0
-3 -5 -31 0
3 6 37 0
-3 -6 -37 0
1 4 8 0
-1 -4 -8 0
2 4 14 0
-2 -4 -14 0
3 4 20 0
-3 -4 -20 0
4 26 0
-4 -26 0
4 5 32 0
-4 -5 -32 0
4 6 38 0
-4 -6 -38 0
1 5 9 0
-1 -5 -9 0
2 5 15 0
-2 -5 -15 0
3 5 21 0
-3 -5 -21 0
4 5 27 0
-4 -5 -27 0
5 33 0
-5 -33 0
5 6 39 0
-5 -6 -39 0
1 6 10 0
-1 -6 -10 0
2 6 16 0
-2 -6 -16 0
3 6 22 0
-3 -6 -22 0
4 6 28 0
-4 -6 -28 0
5 6 34 0
-5 -6 -34 0
1 7 11 0
-1 -7 -11 0
2 7 17 0
-2 -7 -17 0
3 7 23 0
-3 -7 -23 0
4 7 29 0
-4 -7 -29 0
5 7 35 0
-5 -7 -35 0
1 8 12 0
-1 -8 -12 0
2 8 18 0
-2 -8 -18 0
3 8 24 0
-3 -8 -24 0
4 8 30 0
-4 -8 -30 0
5 8 36 0
-5 -8 -36 0
1 9 13 0
-1 -9 -13 0
2 9 19 0
-2 -9 -19 0
3 9 25 0
-3 -9 -25 0
4 9 31 0
-4 -9 -31 0
5 9 37 0
-5 -9 -37 0
1 10 14 0
-1 -10 -14 0
2 10 20 0
-2 -10 -20 0
3 10 26 0
-3 -10 -26 0
4 10 32 0
-4 -10 -32 0
5 10 38 0
-5 -10 -38 0
1 11 15 0
-1 -11 -15 0
2 11 21 0
-2 -11 -21 0
3 11 27 0
-3 -11 -27 0
4 11 33 0
-4 -11 -33 0
5 11 39 0
-5 -11 -39 0
1 12 16 0
-1 -12 -16 0
2 12 22 0
-2 -12 -22 0
3 12 28 0
-3 -12 -28 0
4 12 34 0
-4 -12 -34 0
1 13 17 0
-1 -13 -17 0
2 13 23 0
-2 -13 -23 0
3 13 29 0
-3 -13 -29 0
4 13 35 0
-4 -13 -35 0
1 14 18 0
-1 -14 -18 0
2 14 24 0
-2 -14 -24 0
3 14 30 0
-3 -14 -30 0
4 14 36 0
-4 -14 -36 0
1 15 19 0
-1 -15 -19 0
2 15 25 0
-2 -15 -25 0
3 15 31 0
-3 -15 -31 0
4 15 37 0
-4 -15 -37 0
1 16 20 0
-1 -16 -20 0
2 16 26 0
-2 -16 -26 0
3 16 32 0
-3 -16 -32 0
4 16 38 0
-4 -16 -38 0
1 17 21 0
-1 -17 -21 0
2 17 27 0
-2 -17 -27 0
3 17 33 0
-3 -17 -33 0
4 17 39 0
-4 -17 -39 0
1 18 22 0
-1 -18 -22 0
2 18 28 0
-2 -18 -28 0
3 18 34 0
-3 -18 -34 0
1 19 23 0
-1 -19 -23 0
2 19 29 0
-2 -19 -29 0
3 19 35 0
-3 -19 -35 0
1 20 24 0
-1 -20 -24 0
2 20 30 0
-2 -20 -30 0
3 20 36 0
-3 -20 -36 0
1 21 25 0
-1 -21 -25 0
2 21 31 0
-2 -21 -31 0
3 21 37 0
-3 -21 -37 0
1 22 26 0
-1 -22 -26 0
2 22 32 0
-2 -22 -32 0
3 22 38 0
-3 -22 -38 0
1 23 27 0
-1 -23 -27 0
2 23 33 0
-2 -23 -33 0
3 23 39 0
-3 -23 -39 0
1 24 28 0
-1 -24 -28 0
2 24 34 0
-2 -24 -34 0
1 25 29 0
-1 -25 -29 0
2 25 35 0
-2 -25 -35 0
1 26 30 0
-1 -26 -30 0
2 26 36 0
-2 -26 -36 0
1 27 31 0
-1 -27 -31 0
2 27 37 0
-2 -27 -37 0
1 28 32 0
-1 -28 -32 0
2 28 38 0
-2 -28 -38 0
1 29 33 0
-1 -29 -33 0
2 29 39 0
-2 -29 -39 0
1 30 34 0
-1 -30 -34 0
1 31 35 0
-1 -31 -35 0
1 32 36 0
-1 -32 -36 0
1 33 37 0
-1 -33 -37 0
1 34 38 0
-1 -34 -38 0
1 35 39 0
-1 -35 -39 0
