certificates/rado_a6_c2_N39.drat
1 -38 -39 0
-1 -39 0
-39 0
-5 -35 0
-35 0
1 0
-5 0
33 0
6 0
11 0
7 0
-37 0
-29 0
-10 0
-2 0
-15 0
-4 0
0
